% demand
num_movements = 40;
loading_factor = [1250, 1100, 1100, 1500, 1250, 1500, 1450, 1200, 1750, 1350, 1200, 1150, 1200, 1250, 1700, 1250, 1900, 1000, 1950, 1650, 850, 1850, 850, 1000, 800, 1200, 1850, 1400, 1450, 1850, 1700, 1300, 1850, 1800, 1500, 1500, 1050, 1200, 1500, 1600];
pickup_time = [0, 0, 0, 0, 0, 0, 0, 0, 2, 2, 2, 4, 4, 4, 4, 5, 5, 5, 5, 6, 6, 6, 6, 6, 7, 7, 7, 8, 8, 8, 8, 8, 9, 9, 9, 9, 10, 10, 10, 10];
delivery_time = [1, 1, 4, 4, 2, 2, 1, 1, 4, 3, 4, 5, 6, 8, 6, 6, 6, 6, 6, 8, 8, 7, 9, 8, 8, 8, 8, 9, 9, 9, 9, 9, 11, 11, 10, 11, 11, 11, 11, 11];

% transporter definition
total_capacity = 11000;
num_decks = 4;
capacity = [3000, 3000, 1000, 4000];

% ways out of decks
num_ways_out = 2;
paths_out = array3d(decks, ways_out, decks, [
% ways out of deck d1
2, 4, 0, 0, 3, 4, 0, 0, 

% ways out of deck d2
4, 0, 0, 0, 0, 0, 0, 0,	

% ways out of deck d3
4, 0, 0, 0, 0, 0, 0, 0,	

% ways out of deck d4
0, 0, 0, 0,	0, 0, 0, 0,	

]);

